[VALIDATOR STDOUT]
Checking plan: /home/jfan5/Safety-gen/runs/benchmark/optic/delivery_20260129_163024/delivery/optic_results/delivery_size50_packages1_seed50001.plan
Plan executed successfully - checking goal
Plan valid
Final value: 126 

Successful plans:
Value: 126
 /home/jfan5/Safety-gen/runs/benchmark/optic/delivery_20260129_163024/delivery/optic_results/delivery_size50_packages1_seed50001.plan 126
